10J3M/DAT/10J3MNTX-8.dat
10 3
24.7931 4.9793
24.046 4.9037
29.9541 5.473
23.9267 4.8915
21.61 4.6487
25.1496 5.0149
33.637 5.7997
28.3262 5.3222
24.093 4.9085
23.9181 4.8906
12.708