10J3M/SOL/10J3MNTX-8.sol
solution status: optimal solution found
objective value:                     63.0664645031571
x#1#1                               0.465355155961924 	(obj:0)
x#1#2                               0.534644844038076 	(obj:0)
x#3#3                                               1 	(obj:0)
x#5#2                                               1 	(obj:0)
x#6#1                               0.722324117568359 	(obj:0)
x#6#3                               0.277675882431641 	(obj:0)
x#7#1                                               1 	(obj:0)
x#8#3                               0.177425685306451 	(obj:0)
x#9#1                              0.0626121806703238 	(obj:0)
x#9#3                               0.937387819329676 	(obj:0)
x#10#1                               0.14254691190273 	(obj:0)
x#10#2                               0.85745308809727 	(obj:0)
z                                    63.0664645031571 	(obj:1)
